(set-logic QF_S)
(declare-fun var0 () String)
(assert (str.in.re var0 (re.++ (re.+ (re.* (str.to.re "000"))) (re.++ (re.+ (re.+ (str.to.re "111"))) (re.++ (re.+ (re.* (str.to.re "2"))) (re.++ (re.union (re.* (str.to.re "33")) (re.* (str.to.re "444"))) (re.++ (re.union (re.union (str.to.re "55") (str.to.re "66")) (re.union (str.to.re "77") (str.to.re "888"))) (re.++ (re.* (re.* (str.to.re "99"))) (re.++ (re.union (re.* (str.to.re "aaa")) (re.* (str.to.re "b"))) (re.++ (re.+ (re.* (str.to.re "c"))) (re.++ (re.union (re.union (str.to.re "dd") (str.to.re "e")) (re.union (str.to.re "fff") (str.to.re "g"))) (re.++ (re.* (re.* (str.to.re "hh"))) (re.++ (re.union (re.union (str.to.re "iii") (str.to.re "j")) (re.union (str.to.re "kkk") (str.to.re "lll"))) (re.++ (re.* (re.* (str.to.re "mmm"))) (re.++ (re.+ (re.* (str.to.re "n"))) (re.++ (re.* (re.union (str.to.re "ooo") (str.to.re "ppp"))) (re.+ (re.+ (str.to.re "qqq")))))))))))))))))))
(check-sat)